WARNING: for repeatability, setting FPU to use double precision
============================[ Problem Statistics ]=============================
|                                                                             |
|  Number of variables:            50                                         |
|  Number of clauses:             218                                         |
|  Parse time:                   0.00 s                                       |
|                                                                             |
============================[ Search Statistics ]==============================
| Conflicts |          ORIGINAL         |          LEARNT          | Progress |
|           |    Vars  Clauses Literals |    Limit  Clauses Lit/Cl |          |
===============================================================================
===============================================================================
restarts              : 1
conflicts             : 76             (49479 /sec)
decisions             : 100            (0.00 % random) (65104 /sec)
propagations          : 1147           (746745 /sec)
conflict literals     : 383            (14.70 % deleted)
Memory used           : 20.00 MB
CPU time              : 0.001536 s

SATISFIABLE
